211 5
10 10 10 10 10 

0 0 0 0 0 0 1 2 
0 0 0 0 0 0 2 3 8 
3 0 0 7 0 0 2 12 4 
3 0 0 5 0 0 1 5 
3 0 0 7 0 0 2 11 6 
8 0 0 9 0 0 1 7 
2 0 0 10 0 0 1 9 
3 0 0 8 0 0 1 9 
1 0 0 5 0 0 1 10 
3 0 0 10 0 0 1 13 
9 0 0 6 0 0 1 13 
6 0 0 8 0 0 1 13 
0 0 0 0 0 0 2 14 26 
0 0 0 0 0 0 3 15 18 185 
4 0 0 3 0 0 2 24 16 
7 0 0 5 0 0 1 17 
7 0 0 8 0 0 2 23 19 
3 0 0 10 0 0 3 24 23 22 
5 0 0 10 0 0 1 20 
2 0 0 7 0 0 1 21 
4 0 0 9 0 0 1 22 
8 0 0 10 0 0 1 25 
7 0 0 8 0 0 1 25 
4 0 0 5 0 0 1 25 
0 0 0 0 0 0 2 48 60 
0 0 0 0 0 0 2 27 32 
10 0 0 0 2 2 1 28 
3 0 0 0 8 5 2 46 29 
9 0 0 0 6 10 3 45 34 30 
10 0 0 0 9 9 2 31 52 
7 0 0 0 5 6 1 33 
8 0 0 0 8 10 1 34 
8 0 0 0 10 8 1 35 
6 0 0 0 8 5 1 35 
6 0 0 0 6 4 1 36 
2 0 0 0 10 9 1 37 
9 0 0 0 8 9 1 38 
2 0 0 0 8 10 2 44 39 
10 0 0 0 10 6 1 40 
7 0 0 0 6 7 1 41 
3 0 0 0 10 10 1 42 
9 0 0 0 10 9 1 43 
8 0 0 0 9 8 1 47 
9 0 0 0 3 7 1 47 
8 0 0 0 9 8 1 47 
2 0 0 0 5 8 1 47 
0 0 0 0 0 0 1 72 
0 0 0 0 0 0 1 49 
6 0 0 0 0 7 2 51 50 
10 0 0 0 0 8 2 58 52 
2 0 0 0 0 6 2 58 52 
7 0 0 0 0 5 1 53 
7 0 0 0 0 10 1 54 
3 0 0 0 0 4 2 57 55 
9 0 0 0 0 8 1 56 
1 0 0 0 0 7 1 59 
3 0 0 0 0 10 2 59 62 
3 0 0 0 0 10 1 59 
0 0 0 0 0 0 1 72 
0 0 0 0 0 0 3 61 62 65 
5 0 0 0 0 4 1 63 
1 0 0 0 0 10 1 63 
4 0 0 0 0 9 1 64 
10 0 0 0 0 8 1 66 
8 0 0 0 0 10 1 66 
1 0 0 0 0 1 2 67 134 
2 0 0 0 0 10 2 70 68 
3 0 0 0 0 8 1 69 
1 0 0 0 0 8 1 71 
8 0 0 0 0 7 1 71 
0 0 0 0 0 0 1 72 
0 0 0 0 0 0 4 73 85 107 129 
0 0 0 0 0 0 3 74 77 79 
7 0 6 0 0 0 1 75 
1 0 7 0 0 0 1 76 
2 0 4 0 0 0 2 83 78 
2 0 10 0 0 0 2 83 81 
8 0 7 0 0 0 1 80 
1 0 10 0 0 0 2 80 193 
9 0 7 0 0 0 1 81 
3 0 8 0 0 0 1 82 
1 0 10 0 0 0 1 84 
5 0 6 0 0 0 1 84 
0 0 0 0 0 0 5 151 163 175 187 199 
0 0 0 0 0 0 1 86 
10 0 0 1 4 0 2 98 87 
4 0 0 7 5 0 2 97 88 
8 0 0 7 10 0 2 89 208 
8 0 0 5 7 0 1 90 
7 0 0 10 8 0 2 102 91 
7 0 0 9 8 0 1 92 
10 0 0 6 8 0 1 93 
4 0 0 7 10 0 2 105 94 
9 0 0 6 7 0 1 95 
5 0 0 10 4 0 2 104 96 
3 0 0 10 5 0 1 99 
10 0 0 6 10 0 2 103 102 
2 0 0 3 9 0 2 104 101 
9 0 0 10 9 0 1 100 
4 0 0 10 5 0 1 101 
4 0 0 6 10 0 1 103 
2 0 0 10 9 0 1 105 
6 0 0 7 8 0 1 106 
1 0 0 10 10 0 1 106 
6 0 0 10 4 0 1 106 
0 0 0 0 0 0 1 211 
0 0 0 0 0 0 3 108 115 127 
4 5 0 0 8 0 1 109 
1 6 0 0 5 0 1 110 
9 8 0 0 7 0 1 111 
8 10 0 0 6 0 3 126 118 112 
5 10 0 0 10 0 1 113 
6 7 0 0 6 0 1 114 
5 5 0 0 7 0 2 125 116 
1 8 0 0 8 0 3 126 117 168 
2 6 0 0 10 0 1 117 
4 10 0 0 4 0 1 119 
7 6 0 0 10 0 1 119 
6 7 0 0 2 0 1 120 
3 7 0 0 9 0 1 121 
8 4 0 0 7 0 1 122 
10 8 0 0 10 0 1 123 
2 10 0 0 6 0 1 124 
6 10 0 0 5 0 1 128 
7 7 0 0 10 0 1 128 
4 10 0 0 10 0 1 128 
7 6 0 0 10 0 1 128 
0 0 0 0 0 0 1 211 
0 0 0 0 0 0 1 130 
1 5 0 0 5 0 1 131 
8 8 0 0 7 0 2 134 132 
7 9 0 0 5 0 1 133 
8 9 0 0 6 0 1 135 
3 8 0 0 8 0 2 135 173 
8 10 0 0 4 0 1 136 
3 9 0 0 10 0 2 138 137 
8 4 0 0 9 0 2 142 139 
6 10 0 0 8 0 2 142 141 
6 7 0 0 7 0 1 140 
4 5 0 0 10 0 1 141 
4 9 0 0 10 0 1 143 
3 7 0 0 8 0 1 143 
1 6 0 0 9 0 3 146 145 144 
10 8 0 0 5 0 1 147 
1 7 0 0 7 0 1 147 
2 7 0 0 10 0 1 147 
10 6 0 0 10 0 1 148 
3 10 0 0 4 0 1 149 
10 6 0 0 8 0 1 150 
0 0 0 0 0 0 1 211 
0 0 0 0 0 0 2 152 206 
4 0 0 0 0 6 2 158 153 
3 0 0 0 0 4 1 154 
6 0 0 0 0 10 2 156 155 
9 0 0 0 0 10 2 161 157 
8 0 0 0 0 5 2 161 160 
5 0 0 0 0 10 1 159 
7 0 0 0 0 4 1 159 
7 0 0 0 0 10 1 160 
7 0 0 0 0 6 1 162 
7 0 0 0 0 10 1 162 
0 0 0 0 0 0 1 211 
0 0 0 0 0 0 2 164 165 
7 0 0 0 2 0 1 166 
10 0 0 0 7 0 1 166 
9 0 0 0 9 0 1 167 
9 0 0 0 9 0 3 171 168 193 
1 0 0 0 10 0 1 169 
6 0 0 0 6 0 2 173 170 
8 0 0 0 7 0 1 172 
7 0 0 0 10 0 1 172 
8 0 0 0 9 0 1 174 
8 0 0 0 6 0 1 174 
0 0 0 0 0 0 1 211 
0 0 0 0 0 0 2 176 177 
10 0 0 0 2 0 2 179 178 
6 0 0 0 6 0 2 180 179 
2 0 0 0 9 0 2 183 180 
2 0 0 0 10 0 2 183 181 
3 0 0 0 7 0 2 181 197 
7 0 0 0 7 0 1 182 
9 0 0 0 10 0 1 184 
8 0 0 0 5 0 1 184 
9 0 0 0 9 0 1 185 
5 0 0 0 10 0 1 186 
0 0 0 0 0 0 1 211 
0 0 0 0 0 0 2 188 189 
3 8 0 0 0 0 2 194 190 
6 9 0 0 0 0 3 194 192 206 
4 5 0 0 0 0 1 191 
2 8 0 0 0 0 1 192 
8 10 0 0 0 0 2 197 193 
10 7 0 0 0 0 1 195 
8 10 0 0 0 0 1 195 
10 3 0 0 0 0 1 196 
9 5 0 0 0 0 1 198 
3 10 0 0 0 0 1 198 
0 0 0 0 0 0 1 211 
0 0 0 0 0 0 2 200 204 
10 0 1 0 0 0 1 201 
7 0 9 0 0 0 1 202 
2 0 9 0 0 0 1 203 
3 0 7 0 0 0 3 209 208 205 
6 0 7 0 0 0 2 208 206 
2 0 9 0 0 0 1 206 
7 0 6 0 0 0 1 207 
8 0 9 0 0 0 1 210 
9 0 9 0 0 0 1 210 
10 0 9 0 0 0 1 210 
0 0 0 0 0 0 1 211 
0 0 0 0 0 0 0 
